c File: data_files/evolved_graphs/g0114.col
c
c Auto generated graph
c
p edge 100 3006
e 1 10
e 1 12
e 1 13
e 1 14
e 1 15
e 1 18
e 1 19
e 1 20
e 1 21
e 1 22
e 1 23
e 1 24
e 1 25
e 1 26
e 1 27
e 1 28
e 1 30
e 1 31
e 1 32
e 1 33
e 1 34
e 1 35
e 1 36
e 1 37
e 1 38
e 1 39
e 1 40
e 1 42
e 1 43
e 1 45
e 1 47
e 1 50
e 1 53
e 1 54
e 1 55
e 1 56
e 1 57
e 1 58
e 1 60
e 1 61
e 1 62
e 1 63
e 1 64
e 1 65
e 1 66
e 1 67
e 1 68
e 1 69
e 1 70
e 1 71
e 1 72
e 1 73
e 1 74
e 1 75
e 1 76
e 1 77
e 1 78
e 1 79
e 1 80
e 1 81
e 1 82
e 1 83
e 1 84
e 1 85
e 1 86
e 1 87
e 1 88
e 1 89
e 1 90
e 1 91
e 1 92
e 1 93
e 1 94
e 1 95
e 1 96
e 1 97
e 1 98
e 1 100
e 2 6
e 2 7
e 2 10
e 2 11
e 2 12
e 2 13
e 2 16
e 2 17
e 2 18
e 2 19
e 2 20
e 2 21
e 2 23
e 2 24
e 2 26
e 2 27
e 2 28
e 2 29
e 2 30
e 2 31
e 2 32
e 2 33
e 2 34
e 2 35
e 2 36
e 2 37
e 2 39
e 2 40
e 2 41
e 2 42
e 2 43
e 2 44
e 2 46
e 2 47
e 2 48
e 2 49
e 2 50
e 2 51
e 2 53
e 2 54
e 2 55
e 2 56
e 2 57
e 2 59
e 2 60
e 2 61
e 2 62
e 2 63
e 2 64
e 2 65
e 2 66
e 2 67
e 2 68
e 2 69
e 2 70
e 2 71
e 2 72
e 2 73
e 2 74
e 2 75
e 2 76
e 2 77
e 2 78
e 2 79
e 2 80
e 2 81
e 2 82
e 2 83
e 2 84
e 2 85
e 2 86
e 2 87
e 2 88
e 2 89
e 2 90
e 2 91
e 2 92
e 2 93
e 2 94
e 2 95
e 2 96
e 2 97
e 2 98
e 2 99
e 2 100
e 3 10
e 3 11
e 3 13
e 3 15
e 3 16
e 3 18
e 3 19
e 3 20
e 3 22
e 3 23
e 3 24
e 3 25
e 3 26
e 3 27
e 3 30
e 3 31
e 3 32
e 3 33
e 3 34
e 3 35
e 3 37
e 3 38
e 3 39
e 3 40
e 3 41
e 3 43
e 3 44
e 3 48
e 3 57
e 3 58
e 3 59
e 3 60
e 3 61
e 3 62
e 3 63
e 3 64
e 3 65
e 3 66
e 3 67
e 3 68
e 3 69
e 3 70
e 3 71
e 3 72
e 3 73
e 3 74
e 3 75
e 3 76
e 3 77
e 3 82
e 3 86
e 3 87
e 3 91
e 3 92
e 3 93
e 3 94
e 3 95
e 3 96
e 3 97
e 3 98
e 3 99
e 3 100
e 4 6
e 4 10
e 4 11
e 4 12
e 4 13
e 4 14
e 4 15
e 4 18
e 4 20
e 4 21
e 4 22
e 4 23
e 4 24
e 4 25
e 4 26
e 4 27
e 4 28
e 4 29
e 4 30
e 4 31
e 4 32
e 4 33
e 4 34
e 4 35
e 4 36
e 4 37
e 4 38
e 4 39
e 4 40
e 4 41
e 4 44
e 4 45
e 4 46
e 4 47
e 4 48
e 4 49
e 4 50
e 4 51
e 4 53
e 4 54
e 4 55
e 4 56
e 4 57
e 4 61
e 4 62
e 4 63
e 4 64
e 4 65
e 4 66
e 4 67
e 4 68
e 4 69
e 4 70
e 4 71
e 4 72
e 4 73
e 4 74
e 4 75
e 4 76
e 4 77
e 4 80
e 4 86
e 4 87
e 4 89
e 4 90
e 4 91
e 4 95
e 4 96
e 4 97
e 4 98
e 4 99
e 5 10
e 5 11
e 5 13
e 5 15
e 5 16
e 5 17
e 5 18
e 5 19
e 5 20
e 5 21
e 5 23
e 5 24
e 5 25
e 5 26
e 5 27
e 5 28
e 5 29
e 5 31
e 5 32
e 5 33
e 5 34
e 5 35
e 5 36
e 5 37
e 5 38
e 5 39
e 5 40
e 5 42
e 5 43
e 5 44
e 5 45
e 5 46
e 5 47
e 5 48
e 5 49
e 5 51
e 5 53
e 5 54
e 5 55
e 5 56
e 5 57
e 5 61
e 5 62
e 5 63
e 5 64
e 5 65
e 5 66
e 5 67
e 5 68
e 5 69
e 5 70
e 5 71
e 5 72
e 5 73
e 5 74
e 5 76
e 5 77
e 5 79
e 5 86
e 5 87
e 5 90
e 5 95
e 5 96
e 5 97
e 5 98
e 5 99
e 5 100
e 6 10
e 6 11
e 6 13
e 6 19
e 6 20
e 6 21
e 6 22
e 6 23
e 6 24
e 6 25
e 6 26
e 6 27
e 6 28
e 6 29
e 6 30
e 6 31
e 6 33
e 6 34
e 6 35
e 6 36
e 6 37
e 6 38
e 6 40
e 6 41
e 6 42
e 6 43
e 6 44
e 6 45
e 6 46
e 6 48
e 6 49
e 6 53
e 6 54
e 6 55
e 6 56
e 6 57
e 6 58
e 6 60
e 6 61
e 6 62
e 6 63
e 6 64
e 6 66
e 6 68
e 6 69
e 6 70
e 6 71
e 6 73
e 6 74
e 6 75
e 6 76
e 6 77
e 6 86
e 6 89
e 6 90
e 6 91
e 6 94
e 6 95
e 6 97
e 6 98
e 6 99
e 6 100
e 7 10
e 7 14
e 7 19
e 7 20
e 7 21
e 7 22
e 7 23
e 7 24
e 7 26
e 7 27
e 7 29
e 7 30
e 7 31
e 7 32
e 7 33
e 7 34
e 7 35
e 7 36
e 7 37
e 7 38
e 7 39
e 7 40
e 7 41
e 7 43
e 7 44
e 7 45
e 7 46
e 7 47
e 7 48
e 7 49
e 7 53
e 7 54
e 7 55
e 7 56
e 7 57
e 7 58
e 7 59
e 7 60
e 7 61
e 7 62
e 7 63
e 7 64
e 7 65
e 7 67
e 7 68
e 7 72
e 7 73
e 7 74
e 7 75
e 7 76
e 7 77
e 7 78
e 7 79
e 7 80
e 7 81
e 7 82
e 7 83
e 7 84
e 7 85
e 7 87
e 7 88
e 7 89
e 7 91
e 7 92
e 7 93
e 7 94
e 7 95
e 7 96
e 7 97
e 7 98
e 7 99
e 7 100
e 8 9
e 8 12
e 8 13
e 8 16
e 8 29
e 8 30
e 8 32
e 8 33
e 8 34
e 8 35
e 8 37
e 8 38
e 8 39
e 8 40
e 8 41
e 8 42
e 8 43
e 8 44
e 8 45
e 8 46
e 8 47
e 8 48
e 8 49
e 8 53
e 8 54
e 8 55
e 8 56
e 8 57
e 8 60
e 8 61
e 8 62
e 8 63
e 8 64
e 8 65
e 8 68
e 8 70
e 8 72
e 8 74
e 8 75
e 8 76
e 8 77
e 8 78
e 8 79
e 8 80
e 8 81
e 8 82
e 8 83
e 8 84
e 8 85
e 8 86
e 8 88
e 8 92
e 8 93
e 8 94
e 8 95
e 8 96
e 8 97
e 8 98
e 8 100
e 9 16
e 9 26
e 9 29
e 9 30
e 9 31
e 9 32
e 9 33
e 9 34
e 9 35
e 9 36
e 9 37
e 9 38
e 9 39
e 9 40
e 9 41
e 9 42
e 9 43
e 9 45
e 9 46
e 9 47
e 9 49
e 9 52
e 9 53
e 9 54
e 9 55
e 9 56
e 9 57
e 9 58
e 9 59
e 9 60
e 9 61
e 9 62
e 9 64
e 9 65
e 9 66
e 9 67
e 9 68
e 9 69
e 9 70
e 9 71
e 9 74
e 9 75
e 9 76
e 9 77
e 9 78
e 9 79
e 9 80
e 9 81
e 9 82
e 9 83
e 9 84
e 9 85
e 9 88
e 9 89
e 9 92
e 9 93
e 9 94
e 9 97
e 9 98
e 9 99
e 9 100
e 10 15
e 10 17
e 10 18
e 10 29
e 10 30
e 10 32
e 10 33
e 10 34
e 10 35
e 10 36
e 10 37
e 10 38
e 10 39
e 10 40
e 10 42
e 10 43
e 10 45
e 10 46
e 10 48
e 10 49
e 10 51
e 10 52
e 10 53
e 10 54
e 10 55
e 10 56
e 10 58
e 10 60
e 10 61
e 10 62
e 10 63
e 10 65
e 10 67
e 10 68
e 10 69
e 10 72
e 10 73
e 10 74
e 10 75
e 10 76
e 10 77
e 10 78
e 10 79
e 10 80
e 10 81
e 10 82
e 10 83
e 10 84
e 10 85
e 10 86
e 10 87
e 10 88
e 10 90
e 10 91
e 10 92
e 10 93
e 10 94
e 10 95
e 10 97
e 10 98
e 10 99
e 10 100
e 11 17
e 11 18
e 11 19
e 11 29
e 11 30
e 11 33
e 11 35
e 11 36
e 11 37
e 11 39
e 11 40
e 11 41
e 11 43
e 11 44
e 11 45
e 11 50
e 11 53
e 11 55
e 11 56
e 11 57
e 11 58
e 11 59
e 11 60
e 11 61
e 11 62
e 11 63
e 11 65
e 11 66
e 11 67
e 11 68
e 11 69
e 11 72
e 11 73
e 11 75
e 11 76
e 11 77
e 11 78
e 11 79
e 11 80
e 11 81
e 11 82
e 11 83
e 11 84
e 11 85
e 11 86
e 11 87
e 11 88
e 11 89
e 11 90
e 11 91
e 11 92
e 11 93
e 11 94
e 11 96
e 11 97
e 11 98
e 11 99
e 11 100
e 12 17
e 12 19
e 12 20
e 12 21
e 12 22
e 12 24
e 12 25
e 12 26
e 12 28
e 12 29
e 12 30
e 12 31
e 12 32
e 12 33
e 12 34
e 12 35
e 12 37
e 12 38
e 12 39
e 12 40
e 12 42
e 12 43
e 12 45
e 12 46
e 12 47
e 12 53
e 12 54
e 12 55
e 12 56
e 12 59
e 12 60
e 12 61
e 12 62
e 12 63
e 12 64
e 12 65
e 12 66
e 12 67
e 12 68
e 12 69
e 12 70
e 12 71
e 12 72
e 12 73
e 12 74
e 12 75
e 12 76
e 12 77
e 12 78
e 12 79
e 12 80
e 12 82
e 12 85
e 12 86
e 12 87
e 12 88
e 12 89
e 12 90
e 12 91
e 12 92
e 12 93
e 12 94
e 12 95
e 12 96
e 12 97
e 12 98
e 12 100
e 13 17
e 13 18
e 13 19
e 13 20
e 13 21
e 13 22
e 13 23
e 13 24
e 13 25
e 13 27
e 13 28
e 13 29
e 13 30
e 13 31
e 13 32
e 13 33
e 13 34
e 13 35
e 13 36
e 13 37
e 13 38
e 13 39
e 13 40
e 13 41
e 13 42
e 13 43
e 13 44
e 13 47
e 13 48
e 13 49
e 13 52
e 13 53
e 13 54
e 13 55
e 13 56
e 13 58
e 13 59
e 13 60
e 13 61
e 13 62
e 13 63
e 13 64
e 13 65
e 13 66
e 13 67
e 13 68
e 13 69
e 13 70
e 13 71
e 13 72
e 13 73
e 13 74
e 13 75
e 13 76
e 13 77
e 13 78
e 13 79
e 13 80
e 13 82
e 13 83
e 13 84
e 13 86
e 13 87
e 13 88
e 13 89
e 13 91
e 13 92
e 13 93
e 13 94
e 13 95
e 13 96
e 13 97
e 13 98
e 13 99
e 13 100
e 14 19
e 14 20
e 14 21
e 14 22
e 14 23
e 14 24
e 14 25
e 14 26
e 14 27
e 14 28
e 14 33
e 14 34
e 14 35
e 14 36
e 14 37
e 14 38
e 14 39
e 14 44
e 14 46
e 14 48
e 14 49
e 14 50
e 14 52
e 14 53
e 14 54
e 14 55
e 14 56
e 14 59
e 14 60
e 14 61
e 14 62
e 14 63
e 14 64
e 14 65
e 14 66
e 14 67
e 14 68
e 14 69
e 14 70
e 14 71
e 14 72
e 14 73
e 14 74
e 14 75
e 14 76
e 14 77
e 14 78
e 14 79
e 14 80
e 14 81
e 14 82
e 14 83
e 14 84
e 14 85
e 14 86
e 14 87
e 14 89
e 14 93
e 14 94
e 14 95
e 14 96
e 14 97
e 14 98
e 14 99
e 14 100
e 15 19
e 15 20
e 15 21
e 15 22
e 15 23
e 15 24
e 15 25
e 15 26
e 15 28
e 15 32
e 15 33
e 15 34
e 15 35
e 15 36
e 15 37
e 15 38
e 15 39
e 15 40
e 15 44
e 15 45
e 15 50
e 15 51
e 15 53
e 15 54
e 15 55
e 15 56
e 15 59
e 15 60
e 15 61
e 15 62
e 15 63
e 15 64
e 15 65
e 15 66
e 15 67
e 15 68
e 15 69
e 15 70
e 15 71
e 15 72
e 15 73
e 15 74
e 15 75
e 15 76
e 15 77
e 15 78
e 15 79
e 15 80
e 15 81
e 15 82
e 15 86
e 15 87
e 15 88
e 15 92
e 15 93
e 15 94
e 15 95
e 15 96
e 15 97
e 15 98
e 15 99
e 15 100
e 16 19
e 16 20
e 16 21
e 16 22
e 16 23
e 16 24
e 16 25
e 16 26
e 16 27
e 16 28
e 16 32
e 16 33
e 16 34
e 16 35
e 16 37
e 16 38
e 16 39
e 16 41
e 16 43
e 16 44
e 16 45
e 16 46
e 16 48
e 16 51
e 16 53
e 16 54
e 16 55
e 16 60
e 16 61
e 16 62
e 16 63
e 16 64
e 16 65
e 16 66
e 16 67
e 16 68
e 16 69
e 16 70
e 16 71
e 16 72
e 16 73
e 16 74
e 16 75
e 16 76
e 16 77
e 16 78
e 16 79
e 16 80
e 16 81
e 16 82
e 16 84
e 16 85
e 16 88
e 16 89
e 16 91
e 16 92
e 16 95
e 16 96
e 16 97
e 16 98
e 16 99
e 16 100
e 17 19
e 17 22
e 17 23
e 17 25
e 17 26
e 17 27
e 17 28
e 17 29
e 17 32
e 17 33
e 17 34
e 17 35
e 17 36
e 17 37
e 17 39
e 17 42
e 17 45
e 17 46
e 17 47
e 17 48
e 17 49
e 17 50
e 17 51
e 17 52
e 17 53
e 17 54
e 17 55
e 17 56
e 17 60
e 17 61
e 17 62
e 17 63
e 17 64
e 17 65
e 17 66
e 17 67
e 17 68
e 17 69
e 17 71
e 17 72
e 17 73
e 17 74
e 17 75
e 17 76
e 17 77
e 17 78
e 17 79
e 17 80
e 17 81
e 17 82
e 17 83
e 17 84
e 17 85
e 17 86
e 17 87
e 17 88
e 17 89
e 17 90
e 17 91
e 17 95
e 17 96
e 17 97
e 17 98
e 17 99
e 17 100
e 18 19
e 18 20
e 18 21
e 18 22
e 18 24
e 18 25
e 18 26
e 18 28
e 18 32
e 18 33
e 18 34
e 18 35
e 18 36
e 18 37
e 18 38
e 18 39
e 18 42
e 18 43
e 18 44
e 18 45
e 18 46
e 18 47
e 18 48
e 18 51
e 18 52
e 18 53
e 18 54
e 18 55
e 18 56
e 18 60
e 18 61
e 18 62
e 18 63
e 18 64
e 18 65
e 18 66
e 18 67
e 18 68
e 18 69
e 18 70
e 18 71
e 18 72
e 18 73
e 18 74
e 18 75
e 18 76
e 18 77
e 18 78
e 18 79
e 18 80
e 18 82
e 18 83
e 18 86
e 18 87
e 18 88
e 18 89
e 18 90
e 18 95
e 18 96
e 18 97
e 18 98
e 18 99
e 18 100
e 19 24
e 19 27
e 19 28
e 19 32
e 19 33
e 19 34
e 19 35
e 19 36
e 19 37
e 19 38
e 19 39
e 19 40
e 19 41
e 19 42
e 19 43
e 19 45
e 19 46
e 19 47
e 19 48
e 19 49
e 19 50
e 19 70
e 19 71
e 19 72
e 19 73
e 19 74
e 19 75
e 19 76
e 19 77
e 19 78
e 19 79
e 19 80
e 19 81
e 19 82
e 19 92
e 19 93
e 19 94
e 19 95
e 19 96
e 19 97
e 19 98
e 20 27
e 20 28
e 20 32
e 20 33
e 20 34
e 20 35
e 20 36
e 20 38
e 20 39
e 20 54
e 20 66
e 20 67
e 20 68
e 20 69
e 20 70
e 20 71
e 20 72
e 20 73
e 20 74
e 20 75
e 20 76
e 20 78
e 20 79
e 20 80
e 20 81
e 20 82
e 20 92
e 20 93
e 20 94
e 20 96
e 20 97
e 20 98
e 20 99
e 20 100
e 21 27
e 21 28
e 21 29
e 21 32
e 21 33
e 21 34
e 21 35
e 21 36
e 21 37
e 21 38
e 21 39
e 21 40
e 21 41
e 21 44
e 21 45
e 21 49
e 21 50
e 21 51
e 21 52
e 21 53
e 21 54
e 21 55
e 21 56
e 21 57
e 21 58
e 21 59
e 21 60
e 21 61
e 21 71
e 21 78
e 21 80
e 21 81
e 21 82
e 21 83
e 21 84
e 21 85
e 21 86
e 21 87
e 21 88
e 21 89
e 21 90
e 21 91
e 21 92
e 21 93
e 21 94
e 21 95
e 21 96
e 21 97
e 21 98
e 21 99
e 21 100
e 22 27
e 22 28
e 22 32
e 22 33
e 22 34
e 22 35
e 22 36
e 22 37
e 22 38
e 22 40
e 22 41
e 22 49
e 22 50
e 22 51
e 22 52
e 22 54
e 22 55
e 22 57
e 22 58
e 22 59
e 22 60
e 22 61
e 22 73
e 22 74
e 22 75
e 22 76
e 22 77
e 22 78
e 22 79
e 22 80
e 22 81
e 22 82
e 22 83
e 22 84
e 22 85
e 22 88
e 22 89
e 22 90
e 22 91
e 22 92
e 22 93
e 22 94
e 22 96
e 22 97
e 22 98
e 22 99
e 23 24
e 23 27
e 23 28
e 23 31
e 23 32
e 23 33
e 23 34
e 23 35
e 23 36
e 23 37
e 23 38
e 23 39
e 23 40
e 23 41
e 23 47
e 23 48
e 23 74
e 23 75
e 23 76
e 23 77
e 23 78
e 23 79
e 23 81
e 23 82
e 23 83
e 23 85
e 23 86
e 23 87
e 23 88
e 23 89
e 23 90
e 23 91
e 23 92
e 23 93
e 23 94
e 23 95
e 23 96
e 23 97
e 23 98
e 23 99
e 23 100
e 24 26
e 24 27
e 24 28
e 24 32
e 24 33
e 24 34
e 24 35
e 24 38
e 24 39
e 24 40
e 24 41
e 24 47
e 24 48
e 24 64
e 24 73
e 24 74
e 24 75
e 24 76
e 24 77
e 24 78
e 24 80
e 24 81
e 24 82
e 24 83
e 24 85
e 24 87
e 24 88
e 24 89
e 24 90
e 24 91
e 24 92
e 24 93
e 24 94
e 24 95
e 24 96
e 24 97
e 24 98
e 24 100
e 25 28
e 25 32
e 25 33
e 25 34
e 25 35
e 25 36
e 25 37
e 25 38
e 25 39
e 25 40
e 25 41
e 25 47
e 25 48
e 25 73
e 25 74
e 25 75
e 25 76
e 25 77
e 25 79
e 25 80
e 25 81
e 25 82
e 25 83
e 25 84
e 25 85
e 25 86
e 25 87
e 25 89
e 25 91
e 25 92
e 25 93
e 25 94
e 25 95
e 25 97
e 25 98
e 25 99
e 25 100
e 26 27
e 26 28
e 26 32
e 26 33
e 26 34
e 26 36
e 26 37
e 26 38
e 26 39
e 26 40
e 26 45
e 26 47
e 26 48
e 26 61
e 26 64
e 26 73
e 26 74
e 26 75
e 26 77
e 26 79
e 26 81
e 26 83
e 26 84
e 26 85
e 26 86
e 26 87
e 26 88
e 26 90
e 26 91
e 26 92
e 26 93
e 26 94
e 26 95
e 26 96
e 26 99
e 26 100
e 27 32
e 27 33
e 27 34
e 27 35
e 27 36
e 27 37
e 27 38
e 27 40
e 27 41
e 27 47
e 27 48
e 27 74
e 27 75
e 27 76
e 27 78
e 27 79
e 27 80
e 27 81
e 27 82
e 27 84
e 27 86
e 27 87
e 27 88
e 27 89
e 27 90
e 27 92
e 27 93
e 27 94
e 27 95
e 27 96
e 27 97
e 27 98
e 27 99
e 27 100
e 28 33
e 28 34
e 28 35
e 28 36
e 28 37
e 28 38
e 28 39
e 28 40
e 28 41
e 28 47
e 28 48
e 28 63
e 28 73
e 28 74
e 28 75
e 28 76
e 28 77
e 28 78
e 28 79
e 28 80
e 28 81
e 28 82
e 28 83
e 28 84
e 28 86
e 28 87
e 28 90
e 28 91
e 28 92
e 28 93
e 28 94
e 28 97
e 28 98
e 28 99
e 28 100
e 29 31
e 29 32
e 29 33
e 29 36
e 29 39
e 29 40
e 29 41
e 29 47
e 29 48
e 29 73
e 29 74
e 29 75
e 29 76
e 29 77
e 29 78
e 29 80
e 29 81
e 29 82
e 29 83
e 29 84
e 29 85
e 29 86
e 29 87
e 29 88
e 29 89
e 29 90
e 29 91
e 29 92
e 29 93
e 29 94
e 29 95
e 29 96
e 29 97
e 29 98
e 29 100
e 30 31
e 30 32
e 30 38
e 30 39
e 30 40
e 30 41
e 30 47
e 30 48
e 30 73
e 30 75
e 30 76
e 30 78
e 30 79
e 30 80
e 30 82
e 30 83
e 30 84
e 30 85
e 30 86
e 30 88
e 30 90
e 30 91
e 30 92
e 30 93
e 30 94
e 30 95
e 30 96
e 30 97
e 30 98
e 30 99
e 31 39
e 31 40
e 31 41
e 31 47
e 31 48
e 31 67
e 31 73
e 31 74
e 31 75
e 31 76
e 31 77
e 31 78
e 31 79
e 31 80
e 31 81
e 31 82
e 31 83
e 31 84
e 31 85
e 31 86
e 31 88
e 31 89
e 31 91
e 31 92
e 31 93
e 31 94
e 31 95
e 31 97
e 31 98
e 31 99
e 31 100
e 32 39
e 32 40
e 32 41
e 32 47
e 32 48
e 32 58
e 32 73
e 32 74
e 32 75
e 32 76
e 32 78
e 32 79
e 32 80
e 32 81
e 32 82
e 32 83
e 32 84
e 32 85
e 32 86
e 32 87
e 32 88
e 32 89
e 32 90
e 32 92
e 32 93
e 32 94
e 32 95
e 32 96
e 32 97
e 32 98
e 32 99
e 32 100
e 33 39
e 33 40
e 33 42
e 33 43
e 33 44
e 33 45
e 33 47
e 33 48
e 33 74
e 33 75
e 33 76
e 33 77
e 33 78
e 33 79
e 33 81
e 33 82
e 33 83
e 33 85
e 33 86
e 33 87
e 33 88
e 33 89
e 33 90
e 33 91
e 33 92
e 33 93
e 33 94
e 33 96
e 33 97
e 33 98
e 33 99
e 33 100
e 34 39
e 34 40
e 34 41
e 34 42
e 34 43
e 34 44
e 34 45
e 34 46
e 34 47
e 34 48
e 34 73
e 34 74
e 34 75
e 34 76
e 34 77
e 34 78
e 34 80
e 34 81
e 34 83
e 34 84
e 34 85
e 34 86
e 34 87
e 34 88
e 34 89
e 34 90
e 34 91
e 34 92
e 34 93
e 34 94
e 34 96
e 34 97
e 35 39
e 35 40
e 35 41
e 35 42
e 35 43
e 35 44
e 35 45
e 35 46
e 35 47
e 35 48
e 35 73
e 35 74
e 35 75
e 35 76
e 35 77
e 35 78
e 35 79
e 35 81
e 35 82
e 35 83
e 35 84
e 35 85
e 35 86
e 35 87
e 35 89
e 35 90
e 35 91
e 35 92
e 35 93
e 35 94
e 35 96
e 35 97
e 36 39
e 36 40
e 36 42
e 36 43
e 36 44
e 36 45
e 36 46
e 36 47
e 36 48
e 36 73
e 36 74
e 36 75
e 36 76
e 36 77
e 36 78
e 36 79
e 36 80
e 36 81
e 36 82
e 36 83
e 36 84
e 36 85
e 36 86
e 36 87
e 36 88
e 36 89
e 36 90
e 36 91
e 36 92
e 36 93
e 36 94
e 36 96
e 37 39
e 37 40
e 37 41
e 37 42
e 37 43
e 37 44
e 37 45
e 37 46
e 37 47
e 37 48
e 37 73
e 37 75
e 37 76
e 37 77
e 37 78
e 37 79
e 37 80
e 37 81
e 37 82
e 37 83
e 37 84
e 37 85
e 37 86
e 37 88
e 37 89
e 37 90
e 37 91
e 37 92
e 37 93
e 37 94
e 37 96
e 37 97
e 38 39
e 38 42
e 38 43
e 38 44
e 38 45
e 38 46
e 38 47
e 38 73
e 38 74
e 38 75
e 38 76
e 38 77
e 38 78
e 38 79
e 38 80
e 38 81
e 38 82
e 38 83
e 38 84
e 38 85
e 38 86
e 38 87
e 38 89
e 38 90
e 38 91
e 38 92
e 38 93
e 38 94
e 38 96
e 39 42
e 39 44
e 39 46
e 39 47
e 39 48
e 39 74
e 39 75
e 39 76
e 39 77
e 39 78
e 39 79
e 39 80
e 39 81
e 39 82
e 39 83
e 39 84
e 39 85
e 39 86
e 39 87
e 39 89
e 39 90
e 39 91
e 39 93
e 39 94
e 39 96
e 39 97
e 40 41
e 40 47
e 40 53
e 40 56
e 40 60
e 40 67
e 40 68
e 40 69
e 40 70
e 40 73
e 40 74
e 40 75
e 40 76
e 40 77
e 40 78
e 40 82
e 40 83
e 40 84
e 40 85
e 40 91
e 40 92
e 41 45
e 41 46
e 41 47
e 41 48
e 41 49
e 41 50
e 41 53
e 41 55
e 41 56
e 41 57
e 41 65
e 41 66
e 41 67
e 41 68
e 41 69
e 41 70
e 41 71
e 41 72
e 41 73
e 41 74
e 41 75
e 41 77
e 41 78
e 41 79
e 41 80
e 41 81
e 41 82
e 41 83
e 41 84
e 41 85
e 41 87
e 41 88
e 41 89
e 41 90
e 41 91
e 41 92
e 41 97
e 42 45
e 42 46
e 42 48
e 42 49
e 42 50
e 42 51
e 42 52
e 42 54
e 42 55
e 42 56
e 42 57
e 42 61
e 42 66
e 42 67
e 42 68
e 42 69
e 42 71
e 42 72
e 42 73
e 42 74
e 42 75
e 42 76
e 42 78
e 42 80
e 42 81
e 42 82
e 42 83
e 42 84
e 42 85
e 42 86
e 42 87
e 42 88
e 42 89
e 42 90
e 42 91
e 43 45
e 43 46
e 43 47
e 43 48
e 43 50
e 43 51
e 43 52
e 43 53
e 43 55
e 43 56
e 43 57
e 43 59
e 43 67
e 43 68
e 43 69
e 43 70
e 43 71
e 43 72
e 43 73
e 43 74
e 43 75
e 43 76
e 43 77
e 43 79
e 43 80
e 43 81
e 43 82
e 43 83
e 43 85
e 43 87
e 43 88
e 43 89
e 43 90
e 43 91
e 43 93
e 43 95
e 43 96
e 43 97
e 44 52
e 44 55
e 44 56
e 44 57
e 44 60
e 44 62
e 44 65
e 44 66
e 44 67
e 44 68
e 44 69
e 44 70
e 44 71
e 44 72
e 44 73
e 44 74
e 44 75
e 44 76
e 44 77
e 44 78
e 44 79
e 44 80
e 44 81
e 44 82
e 44 83
e 44 84
e 44 85
e 44 86
e 44 87
e 44 88
e 44 89
e 44 91
e 44 95
e 44 96
e 44 97
e 45 61
e 45 66
e 45 67
e 45 69
e 45 70
e 45 71
e 45 72
e 45 73
e 45 75
e 45 76
e 45 77
e 45 78
e 45 80
e 45 81
e 45 82
e 45 83
e 45 84
e 45 85
e 45 86
e 45 87
e 45 88
e 45 89
e 45 91
e 45 95
e 45 96
e 45 97
e 45 98
e 46 52
e 46 54
e 46 66
e 46 67
e 46 68
e 46 69
e 46 72
e 46 73
e 46 74
e 46 75
e 46 76
e 46 78
e 46 79
e 46 80
e 46 81
e 46 82
e 46 84
e 46 85
e 46 86
e 46 87
e 46 88
e 46 89
e 46 95
e 46 96
e 46 97
e 46 98
e 46 99
e 46 100
e 47 48
e 47 55
e 47 56
e 47 65
e 47 66
e 47 67
e 47 68
e 47 69
e 47 70
e 47 71
e 47 73
e 47 74
e 47 75
e 47 76
e 47 77
e 47 78
e 47 79
e 47 80
e 47 81
e 47 82
e 47 84
e 47 85
e 47 86
e 47 87
e 47 88
e 47 90
e 47 91
e 47 95
e 47 96
e 47 97
e 47 98
e 47 100
e 48 58
e 48 59
e 48 61
e 48 62
e 48 63
e 48 64
e 48 65
e 48 66
e 48 67
e 48 68
e 48 69
e 48 70
e 48 72
e 48 74
e 48 75
e 48 76
e 48 77
e 48 78
e 48 79
e 48 80
e 48 82
e 48 83
e 48 84
e 48 85
e 48 86
e 48 87
e 48 88
e 48 89
e 48 91
e 48 95
e 48 96
e 48 97
e 48 98
e 48 99
e 48 100
e 49 50
e 49 53
e 49 57
e 49 59
e 49 60
e 49 61
e 49 62
e 49 63
e 49 64
e 49 65
e 49 66
e 49 67
e 49 68
e 49 69
e 49 70
e 49 71
e 49 72
e 49 73
e 49 74
e 49 75
e 49 76
e 49 77
e 49 78
e 49 79
e 49 80
e 49 81
e 49 83
e 49 85
e 49 86
e 49 87
e 49 88
e 49 89
e 49 90
e 49 91
e 49 95
e 49 96
e 49 97
e 49 98
e 49 100
e 50 54
e 50 58
e 50 59
e 50 60
e 50 61
e 50 63
e 50 64
e 50 65
e 50 66
e 50 67
e 50 68
e 50 69
e 50 70
e 50 71
e 50 72
e 50 73
e 50 74
e 50 75
e 50 76
e 50 77
e 50 78
e 50 79
e 50 80
e 50 81
e 50 83
e 50 84
e 50 85
e 50 86
e 50 87
e 50 89
e 50 91
e 50 94
e 50 95
e 50 96
e 50 97
e 50 98
e 50 99
e 50 100
e 51 58
e 51 59
e 51 60
e 51 61
e 51 62
e 51 63
e 51 65
e 51 66
e 51 67
e 51 68
e 51 69
e 51 70
e 51 71
e 51 72
e 51 73
e 51 74
e 51 75
e 51 76
e 51 77
e 51 78
e 51 79
e 51 80
e 51 81
e 51 82
e 51 83
e 51 84
e 51 86
e 51 87
e 51 88
e 51 89
e 51 91
e 51 92
e 51 96
e 51 97
e 51 98
e 51 99
e 51 100
e 52 57
e 52 58
e 52 60
e 52 61
e 52 62
e 52 63
e 52 65
e 52 66
e 52 67
e 52 68
e 52 69
e 52 70
e 52 71
e 52 72
e 52 73
e 52 75
e 52 76
e 52 77
e 52 78
e 52 79
e 52 80
e 52 81
e 52 82
e 52 83
e 52 84
e 52 85
e 52 86
e 52 87
e 52 88
e 52 89
e 52 91
e 52 95
e 52 96
e 52 98
e 52 99
e 52 100
e 53 58
e 53 59
e 53 60
e 53 61
e 53 62
e 53 65
e 53 66
e 53 67
e 53 68
e 53 69
e 53 70
e 53 71
e 53 72
e 53 73
e 53 74
e 53 75
e 53 76
e 53 77
e 53 78
e 53 79
e 53 80
e 53 81
e 53 82
e 53 83
e 53 84
e 53 86
e 53 87
e 53 88
e 53 89
e 53 90
e 53 91
e 53 92
e 53 93
e 53 94
e 53 98
e 53 100
e 54 58
e 54 59
e 54 62
e 54 63
e 54 65
e 54 66
e 54 67
e 54 68
e 54 69
e 54 71
e 54 72
e 54 73
e 54 74
e 54 75
e 54 76
e 54 77
e 54 78
e 54 79
e 54 80
e 54 81
e 54 82
e 54 83
e 54 84
e 54 85
e 54 87
e 54 88
e 54 89
e 54 90
e 54 91
e 54 92
e 54 93
e 54 99
e 54 100
e 55 57
e 55 58
e 55 59
e 55 60
e 55 61
e 55 62
e 55 63
e 55 64
e 55 65
e 55 66
e 55 67
e 55 68
e 55 69
e 55 70
e 55 71
e 55 72
e 55 73
e 55 74
e 55 75
e 55 76
e 55 77
e 55 78
e 55 79
e 55 80
e 55 83
e 55 84
e 55 85
e 55 86
e 55 87
e 55 88
e 55 89
e 55 90
e 55 91
e 55 92
e 55 94
e 55 98
e 55 99
e 55 100
e 56 57
e 56 58
e 56 59
e 56 60
e 56 61
e 56 62
e 56 63
e 56 64
e 56 65
e 56 66
e 56 67
e 56 68
e 56 69
e 56 70
e 56 71
e 56 72
e 56 73
e 56 74
e 56 75
e 56 76
e 56 78
e 56 79
e 56 80
e 56 81
e 56 82
e 56 83
e 56 84
e 56 85
e 56 88
e 56 89
e 56 90
e 56 91
e 56 93
e 56 94
e 56 98
e 56 99
e 56 100
e 57 58
e 57 59
e 57 60
e 57 61
e 57 62
e 57 64
e 57 66
e 57 69
e 57 70
e 57 71
e 57 72
e 57 73
e 57 74
e 57 75
e 57 76
e 57 77
e 57 78
e 57 79
e 57 81
e 57 82
e 57 83
e 57 84
e 57 88
e 57 89
e 57 90
e 57 91
e 57 92
e 57 98
e 57 99
e 57 100
e 58 66
e 58 67
e 58 68
e 58 69
e 58 70
e 58 71
e 58 72
e 58 73
e 58 74
e 58 75
e 58 76
e 58 78
e 58 79
e 58 80
e 58 81
e 58 82
e 58 83
e 58 84
e 58 85
e 58 86
e 58 87
e 58 88
e 58 89
e 58 90
e 58 91
e 58 98
e 58 99
e 58 100
e 59 63
e 59 66
e 59 67
e 59 68
e 59 69
e 59 71
e 59 72
e 59 73
e 59 74
e 59 75
e 59 76
e 59 77
e 59 78
e 59 79
e 59 81
e 59 82
e 59 83
e 59 84
e 59 85
e 59 86
e 59 87
e 59 88
e 59 89
e 59 90
e 59 91
e 59 98
e 59 99
e 59 100
e 60 66
e 60 67
e 60 68
e 60 69
e 60 70
e 60 71
e 60 74
e 60 75
e 60 76
e 60 77
e 60 78
e 60 79
e 60 80
e 60 81
e 60 82
e 60 83
e 60 84
e 60 85
e 60 86
e 60 87
e 60 88
e 60 89
e 60 90
e 60 91
e 60 98
e 60 99
e 60 100
e 61 63
e 61 66
e 61 67
e 61 69
e 61 70
e 61 71
e 61 72
e 61 73
e 61 74
e 61 75
e 61 76
e 61 77
e 61 78
e 61 80
e 61 81
e 61 82
e 61 83
e 61 84
e 61 85
e 61 87
e 61 88
e 61 89
e 61 90
e 61 91
e 61 92
e 61 93
e 61 98
e 61 99
e 62 66
e 62 67
e 62 68
e 62 69
e 62 70
e 62 71
e 62 72
e 62 73
e 62 74
e 62 75
e 62 76
e 62 77
e 62 78
e 62 79
e 62 80
e 62 81
e 62 82
e 62 83
e 62 84
e 62 85
e 62 87
e 62 88
e 62 89
e 62 90
e 62 91
e 62 93
e 62 94
e 62 99
e 63 66
e 63 67
e 63 68
e 63 69
e 63 70
e 63 71
e 63 72
e 63 73
e 63 74
e 63 75
e 63 76
e 63 77
e 63 78
e 63 79
e 63 80
e 63 81
e 63 82
e 63 83
e 63 84
e 63 85
e 63 86
e 63 87
e 63 88
e 63 89
e 63 90
e 63 92
e 63 93
e 63 94
e 63 98
e 63 99
e 63 100
e 64 67
e 64 68
e 64 71
e 64 72
e 64 73
e 64 74
e 64 75
e 64 76
e 64 77
e 64 78
e 64 79
e 64 80
e 64 81
e 64 82
e 64 85
e 64 86
e 64 87
e 64 88
e 64 89
e 64 90
e 64 91
e 64 92
e 64 93
e 64 94
e 64 97
e 64 98
e 65 66
e 65 67
e 65 68
e 65 69
e 65 70
e 65 71
e 65 72
e 65 73
e 65 74
e 65 75
e 65 76
e 65 77
e 65 78
e 65 79
e 65 81
e 65 82
e 65 83
e 65 84
e 65 85
e 65 86
e 65 87
e 65 88
e 65 89
e 65 90
e 65 91
e 65 92
e 65 93
e 65 98
e 65 100
e 66 81
e 66 85
e 66 89
e 66 91
e 66 92
e 66 94
e 66 95
e 66 98
e 67 71
e 67 88
e 67 89
e 67 92
e 67 93
e 67 94
e 67 100
e 68 88
e 68 89
e 68 90
e 68 91
e 68 92
e 68 93
e 68 94
e 68 98
e 68 99
e 68 100
e 69 87
e 69 88
e 69 89
e 69 91
e 69 92
e 69 98
e 69 100
e 70 77
e 70 78
e 70 85
e 70 88
e 70 90
e 70 92
e 70 93
e 70 94
e 70 99
e 70 100
e 71 87
e 71 88
e 71 89
e 71 90
e 71 92
e 71 93
e 71 94
e 71 95
e 71 99
e 72 88
e 72 89
e 72 90
e 72 91
e 72 92
e 72 93
e 72 94
e 72 95
e 72 98
e 72 99
e 72 100
e 73 85
e 73 87
e 73 88
e 73 89
e 73 90
e 73 91
e 73 92
e 73 93
e 73 94
e 73 95
e 73 100
e 74 85
e 74 88
e 74 91
e 74 92
e 74 93
e 74 94
e 74 95
e 74 98
e 74 100
e 75 83
e 75 86
e 75 88
e 75 90
e 75 91
e 75 92
e 75 93
e 75 94
e 75 95
e 75 97
e 75 99
e 76 87
e 76 89
e 76 91
e 76 93
e 76 94
e 76 95
e 76 96
e 76 97
e 76 99
e 77 87
e 77 88
e 77 89
e 77 90
e 77 93
e 77 94
e 77 97
e 78 84
e 78 87
e 78 88
e 78 89
e 78 90
e 78 92
e 78 93
e 78 94
e 79 87
e 79 88
e 79 89
e 79 90
e 79 91
e 79 92
e 79 93
e 79 94
e 79 96
e 79 99
e 80 87
e 80 88
e 80 89
e 80 90
e 80 92
e 80 93
e 80 94
e 80 95
e 80 97
e 81 86
e 81 87
e 81 88
e 81 89
e 81 91
e 81 92
e 81 93
e 81 94
e 81 95
e 81 98
e 82 87
e 82 88
e 82 89
e 82 90
e 82 92
e 82 93
e 82 94
e 82 95
e 82 99
e 83 87
e 83 88
e 83 89
e 83 91
e 83 93
e 83 98
e 84 87
e 84 89
e 84 90
e 84 91
e 84 92
e 84 93
e 84 94
e 85 88
e 85 89
e 85 90
e 85 91
e 85 92
e 85 96
e 85 99
e 86 87
e 86 88
e 86 89
e 86 90
e 86 91
e 86 92
e 86 93
e 86 94
e 86 98
e 87 88
e 87 89
e 87 90
e 87 91
e 87 92
e 87 95
e 87 96
e 87 98
e 88 92
e 88 94
e 88 95
e 88 98
e 89 92
e 89 93
e 89 96
e 89 97
e 89 98
e 90 95
e 90 96
e 90 97
e 90 98
e 90 99
e 91 92
e 91 93
e 91 94
e 91 95
e 91 96
e 91 97
e 91 98
e 91 99
e 92 95
e 92 96
e 92 97
e 92 98
e 93 95
e 93 96
e 93 98
e 93 99
e 94 95
e 94 96
e 94 97
e 94 98
e 95 98
e 95 99
e 95 100
e 96 98
e 96 99
e 96 100
e 97 98
e 97 99
e 97 100
e 98 99
e 98 100
